sat
(:added-eqs              3190019
 :binary-propagations    24633555
 :bv-bit2core            3132641
 :bv-diseqs              1095
 :bv-dynamic-diseqs      151815
 :bv-dynamic-eqs         7114
 :bv->core-eq            1854017
 :conflicts              75671
 :decisions              268753
 :del-clause             736519
 :final-checks           1
 :max-memory             93.92
 :memory                 25.76
 :minimized-lits         818397
 :mk-bool-var            653100
 :mk-clause              874531
 :mk-clause-binary       34211
 :num-allocs             1679312833
 :num-checks             1
 :propagations           64991381
 :restarts               306
 :rlimit-count           91752059
 :sat-mk-var             1
 :sls-bv-lookaheads      499273
 :sls-bv-moves           3800
 :sls-bv-restarts        12
 :sls-ddfw-flips         14544.00
 :sls-ddfw-reinits       1
 :sls-ddfw-shifts        169.00
 :sls-num-guided-search  2
 :sls-num-restart-search 9
 :sls-repair-down        2048625
 :sls-repair-up          2614526
 :solve-eqs-elim-vars    4
 :solve-eqs-steps        1184
 :time                   20.36
 :total-time             20.35)
